p edge 64 512
e 1 35
e 1 34
e 1 42
e 1 40
e 1 2
e 1 51
e 1 9
e 1 13
e 1 6
e 1 10
e 1 39
e 1 25
e 1 37
e 1 29
e 1 17
e 2 46
e 2 50
e 2 56
e 2 12
e 2 48
e 2 32
e 2 11
e 2 63
e 2 55
e 2 54
e 2 58
e 2 29
e 2 27
e 2 64
e 2 20
e 3 31
e 3 20
e 3 18
e 3 14
e 3 52
e 3 43
e 3 23
e 3 35
e 3 50
e 3 4
e 3 57
e 3 37
e 3 40
e 3 28
e 4 62
e 4 15
e 4 63
e 4 43
e 4 12
e 4 55
e 4 31
e 4 13
e 4 32
e 4 50
e 5 36
e 5 39
e 5 42
e 5 11
e 5 32
e 5 64
e 5 19
e 5 41
e 5 31
e 5 57
e 5 45
e 5 10
e 5 50
e 5 9
e 6 59
e 6 29
e 6 20
e 6 49
e 6 31
e 6 30
e 6 17
e 6 64
e 6 13
e 6 56
e 6 44
e 6 45
e 6 50
e 6 57
e 6 53
e 6 32
e 6 8
e 6 33
e 7 28
e 7 44
e 7 40
e 7 16
e 7 27
e 7 23
e 7 19
e 7 26
e 7 58
e 7 41
e 7 9
e 7 8
e 7 14
e 8 37
e 8 23
e 8 46
e 8 31
e 8 36
e 8 32
e 8 18
e 8 62
e 8 38
e 8 57
e 8 15
e 8 19
e 8 9
e 8 40
e 8 29
e 8 14
e 8 56
e 8 11
e 8 47
e 9 34
e 9 39
e 9 17
e 9 51
e 9 59
e 9 49
e 9 55
e 9 56
e 9 60
e 9 40
e 9 44
e 9 27
e 9 23
e 9 50
e 9 58
e 9 20
e 10 38
e 10 23
e 10 63
e 10 34
e 10 59
e 10 55
e 10 17
e 10 19
e 10 42
e 10 45
e 10 29
e 10 53
e 10 16
e 11 42
e 11 17
e 11 63
e 11 56
e 11 62
e 11 55
e 11 22
e 11 14
e 11 64
e 11 35
e 11 36
e 11 60
e 12 14
e 12 17
e 12 25
e 12 56
e 12 50
e 12 19
e 12 61
e 12 27
e 12 34
e 12 47
e 12 38
e 12 55
e 12 41
e 12 48
e 12 29
e 12 60
e 12 20
e 13 23
e 13 43
e 13 64
e 13 62
e 13 46
e 13 63
e 13 57
e 13 40
e 13 58
e 13 30
e 14 46
e 14 47
e 14 56
e 14 57
e 14 39
e 14 22
e 14 17
e 14 16
e 14 28
e 14 30
e 14 53
e 14 19
e 14 44
e 14 43
e 14 29
e 15 37
e 15 61
e 15 62
e 15 17
e 15 28
e 15 23
e 15 52
e 15 20
e 15 35
e 15 24
e 15 60
e 15 33
e 15 46
e 16 31
e 16 48
e 16 32
e 16 62
e 16 25
e 16 42
e 16 60
e 16 52
e 16 53
e 16 46
e 16 43
e 16 22
e 16 45
e 16 20
e 17 27
e 17 28
e 17 41
e 17 38
e 17 44
e 17 20
e 17 50
e 17 31
e 17 39
e 17 57
e 17 54
e 17 56
e 17 45
e 18 64
e 18 23
e 18 27
e 18 22
e 18 55
e 18 29
e 18 24
e 18 28
e 18 33
e 18 40
e 18 63
e 18 20
e 18 48
e 18 39
e 19 29
e 19 28
e 19 40
e 19 51
e 19 44
e 19 46
e 19 62
e 19 63
e 19 25
e 19 54
e 19 57
e 20 32
e 20 47
e 20 43
e 20 53
e 20 46
e 20 28
e 21 54
e 21 24
e 21 63
e 21 28
e 21 44
e 21 25
e 21 37
e 21 40
e 21 47
e 21 29
e 21 30
e 21 39
e 21 34
e 21 36
e 21 22
e 21 35
e 21 26
e 22 46
e 22 42
e 22 62
e 22 50
e 22 33
e 22 25
e 22 48
e 22 23
e 22 27
e 22 36
e 22 55
e 22 52
e 22 60
e 22 61
e 23 24
e 23 31
e 23 57
e 23 55
e 23 56
e 23 53
e 23 28
e 23 59
e 23 40
e 23 30
e 23 60
e 23 58
e 23 62
e 24 51
e 24 55
e 24 54
e 24 48
e 24 29
e 24 53
e 24 52
e 24 27
e 24 43
e 24 44
e 25 60
e 25 48
e 25 42
e 25 40
e 25 46
e 25 33
e 25 36
e 25 43
e 25 61
e 25 51
e 26 40
e 26 33
e 26 29
e 26 46
e 26 34
e 26 58
e 26 51
e 26 61
e 26 63
e 26 62
e 26 49
e 26 55
e 27 40
e 27 42
e 27 58
e 27 29
e 27 53
e 27 56
e 27 60
e 27 37
e 27 43
e 28 61
e 28 39
e 28 59
e 28 37
e 28 43
e 28 44
e 28 46
e 28 41
e 29 34
e 29 48
e 29 45
e 29 36
e 29 40
e 29 60
e 29 55
e 29 56
e 29 33
e 29 32
e 29 57
e 30 64
e 30 58
e 30 59
e 30 44
e 30 43
e 30 37
e 30 33
e 30 31
e 30 34
e 30 39
e 30 60
e 31 61
e 31 57
e 31 58
e 31 46
e 31 44
e 31 60
e 32 48
e 32 33
e 32 58
e 32 63
e 33 44
e 33 51
e 33 50
e 33 57
e 33 38
e 33 61
e 33 36
e 34 61
e 34 59
e 34 63
e 34 56
e 34 38
e 35 64
e 35 50
e 35 38
e 35 45
e 35 47
e 35 58
e 35 36
e 35 57
e 36 61
e 36 53
e 37 58
e 37 46
e 37 50
e 37 42
e 37 39
e 37 53
e 38 51
e 38 64
e 38 57
e 38 52
e 38 41
e 38 47
e 39 46
e 39 44
e 39 63
e 39 43
e 39 52
e 40 50
e 40 41
e 40 59
e 41 42
e 41 49
e 41 57
e 42 51
e 42 48
e 42 59
e 42 60
e 42 44
e 43 49
e 43 47
e 43 54
e 43 60
e 44 63
e 44 55
e 44 49
e 44 52
e 44 56
e 45 46
e 45 61
e 45 63
e 45 50
e 45 59
e 45 56
e 45 58
e 45 64
e 46 61
e 47 64
e 47 50
e 47 60
e 47 59
e 48 55
e 48 49
e 48 60
e 48 57
e 48 52
e 48 61
e 49 52
e 49 60
e 49 61
e 49 62
e 49 51
e 49 64
e 50 51
e 50 59
e 50 58
e 50 64
e 50 60
e 51 58
e 51 54
e 51 53
e 52 57
e 52 61
e 53 62
e 53 55
e 54 56
e 54 61
e 54 64
e 54 57
e 55 64
e 55 63
e 55 62
e 56 64
e 56 62
e 57 61
e 58 60
e 59 64
e 59 61
e 60 64
e 60 62
e 60 61
e 60 63
e 61 63
e 62 64
